50
7065

294 941
931 492
162 903
788 886
531 791
537 692
560 168
722 68
456 102
431 825
180 32
546 153
567 57
821 770
35 239
788 555
954 427
458 384
324 18
915 305
907 645
693 791
704 599
887 636
385 822
116 353
351 72
740 988
379 981
173 677
806 552
730 119
883 39
566 523
430 812
149 187
86 503
98 877
985 589
669 628
316 820
13 338
760 215
225 653
96 643
758 819
458 977
426 559
653 904
465 864
